feasible solution found by trivial heuristic after 0.0 seconds, objective value 0.000000e+00
presolving:
   (0.0s) running MILP presolver
   (0.1s) MILP presolver found nothing
(round 1, exhaustive) 0 del vars, 0 del conss, 0 add conss, 0 chg bounds, 0 chg sides, 0 chg coeffs, 9494 upgd conss, 0 impls, 9494 clqs
   (0.2s) probing: 51/139 (36.7%) - 0 fixings, 0 aggregations, 0 implications, 0 bound changes
   (0.2s) probing aborted: 50/50 successive totally useless probings
   (0.3s) symmetry computation started: requiring (bin +, int -, cont +), (fixed: bin -, int +, cont -)
   (0.3s) no symmetry present
presolving (2 rounds: 2 fast, 2 medium, 2 exhaustive):
 0 deleted vars, 0 deleted constraints, 0 added constraints, 0 tightened bounds, 0 added holes, 0 changed sides, 0 changed coefficients
 0 implications, 9494 cliques
presolved problem has 139 variables (139 bin, 0 int, 0 impl, 0 cont) and 9494 constraints
   9494 constraints of type <setppc>
transformed objective value is always integral (scale: 1)
Presolving Time: 0.31
transformed 1/1 original solutions to the transformed problem space

 time | node  | left  |LP iter|LP it/n|mem/heur|mdpt |vars |cons |rows |cuts |sepa|confs|strbr|  dualbound   | primalbound  |  gap   | compl. 
p 0.4s|     1 |     0 |     0 |     - |  clique|   0 | 139 |9494 |9494 |   0 |  0 |   0 |   0 | 6.862000e+03 | 7.430000e+02 | 823.55%| unknown
  0.8s|     1 |     0 |  1213 |     - |    62M |   0 | 139 |9494 |9494 |   0 |  0 |   0 |   0 | 1.360706e+03 | 7.430000e+02 |  83.14%| unknown
  0.9s|     1 |     0 |  1320 |     - |    64M |   0 | 139 |9494 |9495 |   1 |  1 |   0 |   0 | 1.354865e+03 | 7.430000e+02 |  82.35%| unknown
  1.0s|     1 |     0 |  1429 |     - |    66M |   0 | 139 |9494 |9496 |   2 |  2 |   0 |   0 | 1.352985e+03 | 7.430000e+02 |  82.10%| unknown
  1.1s|     1 |     0 |  1569 |     - |    69M |   0 | 139 |9494 |9497 |   3 |  3 |   0 |   0 | 1.351728e+03 | 7.430000e+02 |  81.93%| unknown
  1.2s|     1 |     0 |  1717 |     - |    70M |   0 | 139 |9494 |9498 |   4 |  4 |   0 |   0 | 1.351284e+03 | 7.430000e+02 |  81.87%| unknown
  1.3s|     1 |     0 |  1854 |     - |    72M |   0 | 139 |9494 |9499 |   5 |  5 |   0 |   0 | 1.350915e+03 | 7.430000e+02 |  81.82%| unknown
  1.4s|     1 |     0 |  1978 |     - |    74M |   0 | 139 |9494 |9500 |   6 |  6 |   0 |   0 | 1.350581e+03 | 7.430000e+02 |  81.77%| unknown
  1.5s|     1 |     0 |  2098 |     - |    75M |   0 | 139 |9494 |9501 |   7 |  7 |   0 |   0 | 1.350208e+03 | 7.430000e+02 |  81.72%| unknown
  1.6s|     1 |     0 |  2213 |     - |    77M |   0 | 139 |9494 |9502 |   8 |  8 |   0 |   0 | 1.349801e+03 | 7.430000e+02 |  81.67%| unknown
  1.8s|     1 |     0 |  2327 |     - |    78M |   0 | 139 |9494 |9503 |   9 |  9 |   0 |   0 | 1.349540e+03 | 7.430000e+02 |  81.63%| unknown
  1.9s|     1 |     0 |  2433 |     - |    81M |   0 | 139 |9494 |9504 |  10 | 10 |   0 |   0 | 1.349290e+03 | 7.430000e+02 |  81.60%| unknown
  1.9s|     1 |     0 |  2537 |     - |    82M |   0 | 139 |9494 |9505 |  11 | 11 |   0 |   0 | 1.349098e+03 | 7.430000e+02 |  81.57%| unknown
  2.0s|     1 |     0 |  2578 |     - |    83M |   0 | 139 |9494 |9506 |  12 | 12 |   0 |   0 | 1.349072e+03 | 7.430000e+02 |  81.57%| unknown
  2.1s|     1 |     0 |  2647 |     - |    84M |   0 | 139 |9494 |9507 |  13 | 13 |   0 |   0 | 1.349022e+03 | 7.430000e+02 |  81.56%| unknown
 time | node  | left  |LP iter|LP it/n|mem/heur|mdpt |vars |cons |rows |cuts |sepa|confs|strbr|  dualbound   | primalbound  |  gap   | compl. 
  2.1s|     1 |     0 |  2706 |     - |    85M |   0 | 139 |9494 |9508 |  14 | 14 |   0 |   0 | 1.348979e+03 | 7.430000e+02 |  81.56%| unknown
d 2.5s|     1 |     0 |  3745 |     - |farkasdi|   0 | 139 |9494 |9508 |   0 | 16 |   0 |   0 | 1.348979e+03 | 8.900000e+02 |  51.57%| unknown
  2.6s|     1 |     0 |  3745 |     - |    86M |   0 | 139 |9494 |9508 |  14 | 16 |   0 |   0 | 1.348979e+03 | 8.900000e+02 |  51.57%| unknown
  2.6s|     1 |     0 |  3750 |     - |    86M |   0 | 139 |9494 |9509 |  15 | 17 |   0 |   0 | 1.348978e+03 | 8.900000e+02 |  51.57%| unknown
  2.6s|     1 |     0 |  3768 |     - |    86M |   0 | 139 |9494 |9510 |  16 | 18 |   0 |   0 | 1.348975e+03 | 8.900000e+02 |  51.57%| unknown
  9.5s|     1 |     2 |  3768 |     - |    87M |   0 | 139 |9494 |9510 |  16 | 18 |   0 |  30 | 1.331996e+03 | 8.900000e+02 |  49.66%| unknown
*10.9s|     2 |     1 |  4396 |1761.0 |strongbr|   1 | 139 |9494 |9509 |  16 |  1 |   0 |  47 | 1.331996e+03 | 1.008000e+03 |  32.14%| unknown
 45.9s|   100 |     3 | 19633 | 171.7 |    95M |  19 | 139 |9331 |9516 |  33 |  1 |  34 | 266 | 1.085465e+03 | 1.008000e+03 |   7.68%|  84.59%

SCIP Status        : problem is solved [optimal solution found]
Solving Time (sec) : 46.33
Solving Nodes      : 107
Primal Bound       : +1.00800000000000e+03 (133 solutions)
Dual Bound         : +1.00800000000000e+03
Gap                : 0.00 %
Solve Status: optimal
Solve Time: 46.33 seconds
